(set-option :produce-models true)
(define-fun ceil ((x Real)) Int (ite (= (to_int x) x) (to_int x) (+ (to_int x) 1)))
(define-fun min2 ((x Int) (y Int)) Int (ite (< x y) x y))
(define-fun max2 ((x Int) (y Int)) Int (ite (> x y) x y))
(define-fun sqrt ((x Real)) Real (^ x 0.5))

(declare-const inp_1_size0 Int)
(set-info :example-inp_1_size0 4)
(declare-const inp_1_size1 Int)
(set-info :example-inp_1_size1 12)
(declare-const inp_1_size2 Int)
(set-info :example-inp_1_size2 64)
(declare-const inp_1_size3 Int)
(set-info :example-inp_1_size3 1024)
(declare-const inp_1_stride0 Int)
(set-info :example-inp_1_stride0 786432)
(declare-const inp_1_stride1 Int)
(set-info :example-inp_1_stride1 65536)
(declare-const inp_1_stride2 Int)
(set-info :example-inp_1_stride2 1024)
(declare-const inp_1_stride3 Int)
(set-info :example-inp_1_stride3 1)
(declare-const inp_1_storage_offset Int)
(set-info :example-inp_1_storage_offset 0)
(define-fun ge () Bool (>= inp_1_size0 0))
(assert ge)
(define-fun ge_1 () Bool (>= inp_1_size1 0))
(assert ge_1)
(define-fun ge_2 () Bool (>= inp_1_size2 0))
(assert ge_2)
(define-fun ge_3 () Bool (>= inp_1_size3 0))
(assert ge_3)
(define-fun eq () Bool (= inp_1_size0 0))
(define-fun not_ () Bool (not eq))
(assert not_)
(define-fun sub () Int (- inp_1_size0 1))
(define-fun mul () Int (* inp_1_stride0 sub))
(define-fun add () Int (+ 1 mul))
(define-fun eq_1 () Bool (= inp_1_size1 0))
(define-fun not__1 () Bool (not eq_1))
(assert not__1)
(define-fun sub_1 () Int (- inp_1_size1 1))
(define-fun mul_1 () Int (* inp_1_stride1 sub_1))
(define-fun add_1 () Int (+ add mul_1))
(define-fun eq_2 () Bool (= inp_1_size2 0))
(define-fun not__2 () Bool (not eq_2))
(assert not__2)
(define-fun sub_2 () Int (- inp_1_size2 1))
(define-fun mul_2 () Int (* inp_1_stride2 sub_2))
(define-fun add_2 () Int (+ add_1 mul_2))
(define-fun eq_3 () Bool (= inp_1_size3 0))
(define-fun not__3 () Bool (not eq_3))
(assert not__3)
(define-fun sub_3 () Int (- inp_1_size3 1))
(define-fun mul_3 () Int (* inp_1_stride3 sub_3))
(define-fun add_3 () Int (+ add_2 mul_3))
(define-fun mul_4 () Int (* 4 add_3))
(define-fun mul_5 () Int (* inp_1_size0 inp_1_size1))
(define-fun mul_6 () Int (* mul_5 inp_1_size2))
(define-fun mul_7 () Int (* mul_6 inp_1_size3))
(define-fun eq_4 () Bool (= mul_7 0))
(define-fun not__4 () Bool (not eq_4))
(assert not__4)
(define-fun eq_5 () Bool (= inp_1_size3 1))
(define-fun not__5 () Bool (not eq_5))
(assert not__5)
(define-fun eq_6 () Bool (= inp_1_stride3 1))
(assert eq_6)
(define-fun eq_7 () Bool (= inp_1_size2 1))
(define-fun not__6 () Bool (not eq_7))
(assert not__6)
(define-fun eq_8 () Bool (= inp_1_stride2 inp_1_size3))
(assert eq_8)
(define-fun mul_8 () Int (* inp_1_size3 inp_1_size2))
(define-fun eq_9 () Bool (= inp_1_size1 1))
(define-fun not__7 () Bool (not eq_9))
(assert not__7)
(define-fun eq_10 () Bool (= inp_1_stride1 mul_8))
(assert eq_10)
(define-fun mul_9 () Int (* mul_8 inp_1_size1))
(define-fun eq_11 () Bool (= inp_1_size0 1))
(define-fun not__8 () Bool (not eq_11))
(assert not__8)
(define-fun eq_12 () Bool (= inp_1_stride0 mul_9))
(assert eq_12)
(define-fun mul_10 () Int (* mul_9 inp_1_size0))
(define-fun eq_13 () Bool (= inp_1_stride1 1))
(define-fun not__9 () Bool (not eq_13))
(assert not__9)
(define-fun eq_14 () Bool (= inp_1_stride1 0))
(define-fun not__10 () Bool (not eq_14))
(assert not__10)
(define-fun lt () Bool (< inp_1_stride1 0))
(define-fun not__11 () Bool (not lt))
(assert not__11)
(define-fun gt () Bool (> inp_1_size1 1))
(assert gt)
(define-fun mul_11 () Int (* inp_1_stride1 inp_1_size1))
(define-fun lt_1 () Bool (< inp_1_stride3 mul_11))
(assert lt_1)
(define-fun eq_15 () Bool (= inp_1_size0 inp_1_size0))
(assert eq_15)
(define-fun eq_16 () Bool (= inp_1_size1 inp_1_size1))
(assert eq_16)
(define-fun eq_17 () Bool (= inp_1_size2 inp_1_size2))
(assert eq_17)
(define-fun eq_18 () Bool (= inp_1_size3 inp_1_size3))
(assert eq_18)
(define-fun eq_19 () Bool (= inp_1_stride3 0))
(define-fun not__12 () Bool (not eq_19))
(assert not__12)
(define-fun eq_20 () Bool (= inp_1_stride2 0))
(define-fun not__13 () Bool (not eq_20))
(assert not__13)
(define-fun lt_2 () Bool (< inp_1_stride3 inp_1_stride2))
(assert lt_2)
(define-fun lt_3 () Bool (< inp_1_stride2 inp_1_stride1))
(assert lt_3)
(define-fun eq_21 () Bool (= inp_1_stride0 0))
(define-fun not__14 () Bool (not eq_21))
(assert not__14)
(define-fun lt_4 () Bool (< inp_1_stride1 inp_1_stride0))
(assert lt_4)
(define-fun mul_12 () Int (* mul_9 sub))
(define-fun add_4 () Int (+ 1 mul_12))
(define-fun mul_13 () Int (* mul_8 sub_1))
(define-fun add_5 () Int (+ add_4 mul_13))
(define-fun mul_14 () Int (* inp_1_size3 sub_2))
(define-fun add_6 () Int (+ add_5 mul_14))
(define-fun add_7 () Int (+ add_6 sub_3))
(define-fun mul_15 () Int (* 4 add_7))
(define-fun eq_22 () Bool (= mul_8 mul_8))
(assert eq_22)
(define-fun eq_23 () Bool (= mul_9 mul_9))
(assert eq_23)
(define-fun eq_24 () Bool (= mul_8 1))
(define-fun not__15 () Bool (not eq_24))
(assert not__15)
(define-fun eq_25 () Bool (= mul_8 0))
(define-fun not__16 () Bool (not eq_25))
(assert not__16)
(define-fun lt_5 () Bool (< mul_8 0))
(define-fun not__17 () Bool (not lt_5))
(assert not__17)
(define-fun lt_6 () Bool (< 1 mul_9))
(assert lt_6)
(define-fun ge_4 () Bool (>= inp_1_storage_offset 0))
(assert ge_4)
(define-fun add_8 () Int (+ inp_1_storage_offset add_3))
(define-fun mul_16 () Int (* 4 add_8))
(declare-const inp_2__base_size0 Int)
(set-info :example-inp_2__base_size0 4096)
(declare-const inp_2__base_size1 Int)
(set-info :example-inp_2__base_size1 768)
(declare-const inp_2__base_stride0 Int)
(set-info :example-inp_2__base_stride0 768)
(declare-const inp_2__base_stride1 Int)
(set-info :example-inp_2__base_stride1 1)
(declare-const inp_2__base_storage_offset Int)
(set-info :example-inp_2__base_storage_offset 0)
(define-fun ge_5 () Bool (>= inp_2__base_size0 0))
(assert ge_5)
(define-fun ge_6 () Bool (>= inp_2__base_size1 0))
(assert ge_6)
(define-fun eq_26 () Bool (= inp_2__base_size0 0))
(define-fun not__18 () Bool (not eq_26))
(assert not__18)
(define-fun sub_4 () Int (- inp_2__base_size0 1))
(define-fun mul_17 () Int (* inp_2__base_stride0 sub_4))
(define-fun add_9 () Int (+ 1 mul_17))
(define-fun eq_27 () Bool (= inp_2__base_size1 0))
(define-fun not__19 () Bool (not eq_27))
(assert not__19)
(define-fun sub_5 () Int (- inp_2__base_size1 1))
(define-fun mul_18 () Int (* inp_2__base_stride1 sub_5))
(define-fun add_10 () Int (+ add_9 mul_18))
(define-fun mul_19 () Int (* 4 add_10))
(define-fun mul_20 () Int (* inp_2__base_size0 inp_2__base_size1))
(define-fun eq_28 () Bool (= mul_20 0))
(define-fun not__20 () Bool (not eq_28))
(assert not__20)
(define-fun eq_29 () Bool (= inp_2__base_size1 1))
(define-fun not__21 () Bool (not eq_29))
(assert not__21)
(define-fun eq_30 () Bool (= inp_2__base_stride1 1))
(assert eq_30)
(define-fun eq_31 () Bool (= inp_2__base_size0 1))
(define-fun not__22 () Bool (not eq_31))
(assert not__22)
(define-fun eq_32 () Bool (= inp_2__base_stride0 inp_2__base_size1))
(assert eq_32)
(define-fun mul_21 () Int (* inp_2__base_size1 inp_2__base_size0))
(define-fun ge_7 () Bool (>= inp_2__base_storage_offset 0))
(assert ge_7)
(define-fun add_11 () Int (+ inp_2__base_storage_offset add_10))
(define-fun mul_22 () Int (* 4 add_11))
(declare-const inp_2_size0 Int)
(set-info :example-inp_2_size0 4)
(declare-const inp_2_size1 Int)
(set-info :example-inp_2_size1 12)
(declare-const inp_2_size2 Int)
(set-info :example-inp_2_size2 1024)
(declare-const inp_2_size3 Int)
(set-info :example-inp_2_size3 64)
(declare-const inp_2_stride0 Int)
(set-info :example-inp_2_stride0 786432)
(declare-const inp_2_stride1 Int)
(set-info :example-inp_2_stride1 64)
(declare-const inp_2_stride2 Int)
(set-info :example-inp_2_stride2 768)
(declare-const inp_2_stride3 Int)
(set-info :example-inp_2_stride3 1)
(declare-const inp_2_storage_offset Int)
(set-info :example-inp_2_storage_offset 0)
(define-fun eq_33 () Bool (= inp_2__base_size0 -1))
(define-fun not__23 () Bool (not eq_33))
(assert not__23)
(define-fun eq_34 () Bool (= inp_2__base_size1 -1))
(define-fun not__24 () Bool (not eq_34))
(assert not__24)
(define-fun eq_35 () Bool (= mul_20 mul_20))
(assert eq_35)
(define-fun eq_36 () Bool (= inp_2__base_size0 inp_2__base_size0))
(assert eq_36)
(define-fun eq_37 () Bool (= inp_2__base_size1 inp_2__base_size1))
(assert eq_37)
(define-fun mul_23 () Int (* inp_2_size0 inp_2_size1))
(define-fun mul_24 () Int (* mul_23 inp_2_size2))
(define-fun mul_25 () Int (* mul_24 inp_2_size3))
(define-fun eq_38 () Bool (= mul_25 0))
(define-fun not__25 () Bool (not eq_38))
(assert not__25)
(define-fun eq_39 () Bool (= inp_2_size3 1))
(define-fun not__26 () Bool (not eq_39))
(assert not__26)
(define-fun eq_40 () Bool (= inp_2_stride3 1))
(assert eq_40)
(define-fun eq_41 () Bool (= inp_2_size2 1))
(define-fun not__27 () Bool (not eq_41))
(assert not__27)
(define-fun eq_42 () Bool (= inp_2_stride2 inp_2_size3))
(define-fun not__28 () Bool (not eq_42))
(assert not__28)
(define-fun eq_43 () Bool (= inp_2_size1 1))
(define-fun not__29 () Bool (not eq_43))
(assert not__29)
(define-fun eq_44 () Bool (= inp_2_stride1 1))
(define-fun not__30 () Bool (not eq_44))
(assert not__30)
(define-fun lt_7 () Bool (< inp_2_size1 2))
(define-fun not__31 () Bool (not lt_7))
(assert not__31)
(define-fun lt_8 () Bool (< inp_2_size0 2))
(define-fun not__32 () Bool (not lt_8))
(assert not__32)
(define-fun lt_9 () Bool (< inp_2_stride1 inp_2_stride0))
(assert lt_9)
(define-fun lt_10 () Bool (< inp_2_size2 2))
(define-fun not__33 () Bool (not lt_10))
(assert not__33)
(define-fun lt_11 () Bool (< inp_2_stride2 inp_2_stride1))
(define-fun not__34 () Bool (not lt_11))
(assert not__34)
(define-fun lt_12 () Bool (< inp_2_stride2 inp_2_stride0))
(assert lt_12)
(define-fun lt_13 () Bool (< inp_2_size3 2))
(define-fun not__35 () Bool (not lt_13))
(assert not__35)
(define-fun lt_14 () Bool (< inp_2_stride3 inp_2_stride1))
(assert lt_14)
(define-fun eq_45 () Bool (= inp_2_stride1 inp_2_size3))
(assert eq_45)
(define-fun mul_26 () Int (* inp_2_size3 inp_2_size1))
(define-fun eq_46 () Bool (= inp_2_stride2 mul_26))
(assert eq_46)
(define-fun mul_27 () Int (* mul_26 inp_2_size2))
(define-fun eq_47 () Bool (= inp_2_stride0 mul_27))
(assert eq_47)
(define-fun mul_28 () Int (* mul_27 inp_2_size0))
(define-fun eq_48 () Bool (= inp_2_stride1 0))
(define-fun not__36 () Bool (not eq_48))
(assert not__36)
(define-fun eq_49 () Bool (= inp_2_size1 0))
(define-fun not__37 () Bool (not eq_49))
(assert not__37)
(define-fun lt_15 () Bool (< inp_2_stride1 0))
(define-fun not__38 () Bool (not lt_15))
(assert not__38)
(define-fun gt_1 () Bool (> inp_2_size1 1))
(assert gt_1)
(define-fun mul_29 () Int (* inp_2_stride1 inp_2_size1))
(define-fun eq_50 () Bool (= inp_2_size3 0))
(define-fun not__39 () Bool (not eq_50))
(assert not__39)
(define-fun lt_16 () Bool (< inp_2_stride3 mul_29))
(assert lt_16)
(define-fun eq_51 () Bool (= inp_1_size2 -1))
(define-fun not__40 () Bool (not eq_51))
(assert not__40)
(define-fun eq_52 () Bool (= inp_1_size3 -1))
(define-fun not__41 () Bool (not eq_52))
(assert not__41)
(define-fun mul_30 () Int (* inp_1_size2 inp_1_size3))
(define-fun eq_53 () Bool (= mul_7 mul_30))
(define-fun not__42 () Bool (not eq_53))
(assert not__42)
(define-fun gt_2 () Bool (> mul_30 0))
(assert gt_2)
(define-fun mod () Int (mod mul_7 mul_30))
(define-fun eq_54 () Bool (= mod 0))
(assert eq_54)
(define-fun eq_55 () Bool (= mul_30 0))
(define-fun not__43 () Bool (not eq_55))
(assert not__43)
(define-fun floordiv () Int (div mul_7 mul_30))
(define-fun mul_31 () Int (* inp_1_size3 inp_1_stride3))
(define-fun eq_56 () Bool (= inp_1_stride2 mul_31))
(assert eq_56)
(define-fun mul_32 () Int (* mul_8 inp_1_stride3))
(define-fun eq_57 () Bool (= inp_1_stride1 mul_32))
(assert eq_57)
(define-fun mul_33 () Int (* mul_9 inp_1_stride3))
(define-fun eq_58 () Bool (= inp_1_stride0 mul_33))
(assert eq_58)
(define-fun lt_17 () Bool (< 1 mul_10))
(assert lt_17)
(define-fun lt_18 () Bool (< inp_1_size3 mul_10))
(assert lt_18)
(define-fun lt_19 () Bool (< mul_8 mul_10))
(assert lt_19)
(define-fun mul_34 () Int (* mul_8 floordiv))
(define-fun eq_59 () Bool (= mul_34 mul_10))
(assert eq_59)
(define-fun eq_60 () Bool (= floordiv -1))
(define-fun not__44 () Bool (not eq_60))
(assert not__44)
(define-fun ge_8 () Bool (>= floordiv 0))
(assert ge_8)
(define-fun mul_35 () Int (* floordiv inp_1_size2))
(define-fun mul_36 () Int (* mul_35 inp_1_size3))
(define-fun eq_61 () Bool (= mul_7 mul_36))
(assert eq_61)
(define-fun eq_62 () Bool (= inp_1_size0 floordiv))
(define-fun not__45 () Bool (not eq_62))
(assert not__45)
(define-fun eq_63 () Bool (= floordiv inp_1_size0))
(define-fun not__46 () Bool (not eq_63))
(assert not__46)
(define-fun mod_1 () Int (mod inp_1_size0 floordiv))
(define-fun eq_64 () Bool (= mod_1 0))
(define-fun not__47 () Bool (not eq_64))
(assert not__47)
(define-fun mod_2 () Int (mod mul_5 floordiv))
(define-fun eq_65 () Bool (= mod_2 0))
(assert eq_65)
(define-fun mul_37 () Int (* inp_1_size1 inp_1_size0))
(define-fun lt_20 () Bool (< inp_1_stride0 inp_1_stride1))
(define-fun not__48 () Bool (not lt_20))
(assert not__48)
(define-fun gt_3 () Bool (> mul_7 0))
(assert gt_3)
(define-fun eq_66 () Bool (= inp_1_stride0 mul_11))
(assert eq_66)
(define-fun mul_38 () Int (* mul_37 inp_1_size2))
(define-fun mul_39 () Int (* mul_38 inp_1_size3))
(define-fun eq_67 () Bool (= mul_39 0))
(define-fun not__49 () Bool (not eq_67))
(assert not__49)
(define-fun eq_68 () Bool (= mul_37 1))
(define-fun not__50 () Bool (not eq_68))
(assert not__50)
(define-fun mul_40 () Int (* mul_8 mul_37))
(define-fun eq_69 () Bool (= mul_5 floordiv))
(assert eq_69)
(define-fun eq_70 () Bool (= inp_2_size2 -1))
(define-fun not__51 () Bool (not eq_70))
(assert not__51)
(define-fun ge_9 () Bool (>= inp_2_size2 0))
(assert ge_9)
(define-fun eq_71 () Bool (= inp_2_size3 -1))
(define-fun not__52 () Bool (not eq_71))
(assert not__52)
(define-fun ge_10 () Bool (>= inp_2_size3 0))
(assert ge_10)
(define-fun mul_41 () Int (* inp_2_size2 inp_2_size3))
(define-fun eq_72 () Bool (= mul_25 mul_41))
(define-fun not__53 () Bool (not eq_72))
(assert not__53)
(define-fun gt_4 () Bool (> mul_41 0))
(assert gt_4)
(define-fun mod_3 () Int (mod mul_25 mul_41))
(define-fun eq_73 () Bool (= mod_3 0))
(assert eq_73)
(define-fun eq_74 () Bool (= mul_41 0))
(define-fun not__54 () Bool (not eq_74))
(assert not__54)
(define-fun floordiv_1 () Int (div mul_25 mul_41))
(define-fun mul_42 () Int (* inp_2_size3 inp_2_stride3))
(define-fun eq_75 () Bool (= inp_2_stride2 mul_42))
(define-fun not__55 () Bool (not eq_75))
(assert not__55)
(define-fun lt_21 () Bool (< 1 inp_2_size3))
(assert lt_21)
(define-fun lt_22 () Bool (< inp_2_size3 inp_2_size3))
(define-fun not__56 () Bool (not lt_22))
(assert not__56)
(define-fun eq_76 () Bool (= inp_2_size3 inp_2_size3))
(assert eq_76)
(define-fun mul_43 () Int (* inp_2_size2 inp_2_stride2))
(define-fun eq_77 () Bool (= inp_2_stride1 mul_43))
(define-fun not__57 () Bool (not eq_77))
(assert not__57)
(define-fun lt_23 () Bool (< 1 inp_2_size2))
(assert lt_23)
(define-fun lt_24 () Bool (< inp_2_size2 inp_2_size2))
(define-fun not__58 () Bool (not lt_24))
(assert not__58)
(define-fun eq_78 () Bool (= floordiv_1 1))
(define-fun not__59 () Bool (not eq_78))
(assert not__59)
(define-fun eq_79 () Bool (= inp_2_size2 inp_2_size2))
(assert eq_79)
(define-fun eq_80 () Bool (= inp_2_size0 1))
(define-fun not__60 () Bool (not eq_80))
(assert not__60)
(define-fun mul_44 () Int (* inp_2_size1 inp_2_stride1))
(define-fun eq_81 () Bool (= inp_2_stride0 mul_44))
(define-fun not__61 () Bool (not eq_81))
(assert not__61)
(define-fun lt_25 () Bool (< 1 inp_2_size1))
(assert lt_25)
(define-fun eq_82 () Bool (= floordiv_1 inp_2_size1))
(define-fun not__62 () Bool (not eq_82))
(assert not__62)
(define-fun ge_11 () Bool (>= inp_2_size0 0))
(assert ge_11)
(define-fun ge_12 () Bool (>= inp_2_size1 0))
(assert ge_12)
(define-fun eq_83 () Bool (= inp_2_size2 0))
(define-fun not__63 () Bool (not eq_83))
(assert not__63)
(define-fun mul_45 () Int (* inp_2_size3 inp_2_size2))
(define-fun mul_46 () Int (* mul_45 inp_2_size1))
(define-fun eq_84 () Bool (= inp_2_size0 0))
(define-fun not__64 () Bool (not eq_84))
(assert not__64)
(define-fun mul_47 () Int (* mul_46 inp_2_size0))
(define-fun sub_6 () Int (- inp_2_size0 1))
(define-fun mul_48 () Int (* mul_46 sub_6))
(define-fun add_12 () Int (+ 1 mul_48))
(define-fun sub_7 () Int (- inp_2_size1 1))
(define-fun mul_49 () Int (* mul_45 sub_7))
(define-fun add_13 () Int (+ add_12 mul_49))
(define-fun sub_8 () Int (- inp_2_size2 1))
(define-fun mul_50 () Int (* inp_2_size3 sub_8))
(define-fun add_14 () Int (+ add_13 mul_50))
(define-fun sub_9 () Int (- inp_2_size3 1))
(define-fun add_15 () Int (+ add_14 sub_9))
(define-fun mul_51 () Int (* 4 add_15))
(define-fun eq_85 () Bool (= mul_45 mul_45))
(assert eq_85)
(define-fun eq_86 () Bool (= mul_46 mul_46))
(assert eq_86)
(define-fun eq_87 () Bool (= mul_45 1))
(define-fun not__65 () Bool (not eq_87))
(assert not__65)
(define-fun eq_88 () Bool (= mul_45 0))
(define-fun not__66 () Bool (not eq_88))
(assert not__66)
(define-fun lt_26 () Bool (< mul_45 0))
(define-fun not__67 () Bool (not lt_26))
(assert not__67)
(define-fun lt_27 () Bool (< 1 mul_46))
(assert lt_27)
(define-fun eq_89 () Bool (= floordiv_1 -1))
(define-fun not__68 () Bool (not eq_89))
(assert not__68)
(define-fun ge_13 () Bool (>= floordiv_1 0))
(assert ge_13)
(define-fun mul_52 () Int (* floordiv_1 inp_2_size2))
(define-fun mul_53 () Int (* mul_52 inp_2_size3))
(define-fun eq_90 () Bool (= mul_25 mul_53))
(assert eq_90)
(define-fun eq_91 () Bool (= inp_2_size0 floordiv_1))
(define-fun not__69 () Bool (not eq_91))
(assert not__69)
(define-fun eq_92 () Bool (= floordiv_1 inp_2_size0))
(define-fun not__70 () Bool (not eq_92))
(assert not__70)
(define-fun mod_4 () Int (mod inp_2_size0 floordiv_1))
(define-fun eq_93 () Bool (= mod_4 0))
(define-fun not__71 () Bool (not eq_93))
(assert not__71)
(define-fun mod_5 () Int (mod mul_23 floordiv_1))
(define-fun eq_94 () Bool (= mod_5 0))
(assert eq_94)
(define-fun mul_54 () Int (* inp_2_size1 inp_2_size0))
(define-fun lt_28 () Bool (< mul_46 mul_45))
(define-fun not__72 () Bool (not lt_28))
(assert not__72)
(define-fun gt_5 () Bool (> mul_25 0))
(assert gt_5)
(define-fun mul_55 () Int (* mul_54 inp_2_size2))
(define-fun mul_56 () Int (* mul_55 inp_2_size3))
(define-fun eq_95 () Bool (= mul_56 0))
(define-fun not__73 () Bool (not eq_95))
(assert not__73)
(define-fun eq_96 () Bool (= mul_54 1))
(define-fun not__74 () Bool (not eq_96))
(assert not__74)
(define-fun mul_57 () Int (* mul_45 mul_54))
(define-fun eq_97 () Bool (= mul_23 floordiv_1))
(assert eq_97)
(define-fun eq_98 () Bool (= mul_54 mul_37))
(assert eq_98)
(define-fun eq_99 () Bool (= inp_2_size2 inp_1_size3))
(assert eq_99)
(define-fun ge_14 () Bool (>= mul_37 0))
(assert ge_14)
(define-fun mul_58 () Int (* inp_2_size3 inp_1_size2))
(define-fun eq_100 () Bool (= mul_37 0))
(define-fun not__75 () Bool (not eq_100))
(assert not__75)
(define-fun mul_59 () Int (* mul_58 mul_37))
(define-fun sub_10 () Int (- mul_37 1))
(define-fun mul_60 () Int (* mul_58 sub_10))
(define-fun add_16 () Int (+ 1 mul_60))
(define-fun mul_61 () Int (* inp_2_size3 sub_2))
(define-fun add_17 () Int (+ add_16 mul_61))
(define-fun add_18 () Int (+ add_17 sub_9))
(define-fun mul_62 () Int (* 4 add_18))
(define-fun mul_63 () Int (* mul_38 inp_2_size3))
(define-fun eq_101 () Bool (= mul_63 0))
(define-fun not__76 () Bool (not eq_101))
(assert not__76)
(define-fun eq_102 () Bool (= mul_58 mul_58))
(assert eq_102)
(define-fun eq_103 () Bool (= inp_1_size0 -1))
(define-fun not__77 () Bool (not eq_103))
(assert not__77)
(define-fun eq_104 () Bool (= inp_1_size1 -1))
(define-fun not__78 () Bool (not eq_104))
(assert not__78)
(define-fun mul_64 () Int (* mul_6 inp_2_size3))
(define-fun eq_105 () Bool (= mul_63 mul_64))
(assert eq_105)
(define-fun eq_106 () Bool (= mul_37 inp_1_size0))
(define-fun not__79 () Bool (not eq_106))
(assert not__79)
(define-fun eq_107 () Bool (= inp_1_size0 mul_37))
(define-fun not__80 () Bool (not eq_107))
(assert not__80)
(define-fun mod_6 () Int (mod mul_37 inp_1_size0))
(define-fun eq_108 () Bool (= mod_6 0))
(assert eq_108)
(define-fun floordiv_2 () Int (div mul_37 inp_1_size0))
(define-fun mul_65 () Int (* mul_58 floordiv_2))
(define-fun mul_66 () Int (* inp_1_size0 floordiv_2))
(define-fun mul_67 () Int (* mul_66 inp_1_size2))
(define-fun mul_68 () Int (* mul_67 inp_2_size3))
(define-fun eq_109 () Bool (= mul_68 0))
(define-fun not__81 () Bool (not eq_109))
(assert not__81)
(define-fun eq_110 () Bool (= floordiv_2 1))
(define-fun not__82 () Bool (not eq_110))
(assert not__82)
(define-fun eq_111 () Bool (= mul_65 mul_65))
(assert eq_111)
(define-fun mul_69 () Int (* mul_65 inp_1_size0))
(define-fun eq_112 () Bool (= mul_58 1))
(define-fun not__83 () Bool (not eq_112))
(assert not__83)
(define-fun eq_113 () Bool (= mul_58 0))
(define-fun not__84 () Bool (not eq_113))
(assert not__84)
(define-fun eq_114 () Bool (= floordiv_2 0))
(define-fun not__85 () Bool (not eq_114))
(assert not__85)
(define-fun lt_29 () Bool (< mul_58 0))
(define-fun not__86 () Bool (not lt_29))
(assert not__86)
(define-fun gt_6 () Bool (> floordiv_2 1))
(assert gt_6)
(define-fun lt_30 () Bool (< 1 mul_65))
(assert lt_30)
(define-fun eq_115 () Bool (= inp_1_size1 floordiv_2))
(assert eq_115)
(define-fun lt_31 () Bool (< 1 mul_47))
(assert lt_31)
(define-fun lt_32 () Bool (< inp_2_size3 mul_47))
(assert lt_32)
(define-fun lt_33 () Bool (< mul_45 mul_47))
(assert lt_33)
(define-fun mul_70 () Int (* mul_45 floordiv_1))
(define-fun eq_116 () Bool (= mul_70 mul_47))
(assert eq_116)
(define-fun eq_117 () Bool (= mul_53 0))
(define-fun not__87 () Bool (not eq_117))
(assert not__87)
(define-fun eq_118 () Bool (= mul_16 0))
(define-fun not__88 () Bool (not eq_118))
(assert not__88)
(define-fun eq_119 () Bool (= mul_22 0))
(define-fun not__89 () Bool (not eq_119))
(assert not__89)
(define-fun eq_120 () Bool (= mul_62 0))
(define-fun not__90 () Bool (not eq_120))
(assert not__90)
(define-fun output0_size0 () Int inp_1_size0)
(define-fun output0_size1 () Int floordiv_2)
(define-fun output0_size2 () Int inp_1_size2)
(define-fun output0_size3 () Int inp_2_size3)
(define-fun output0_stride0 () Int mul_65)
(define-fun output0_stride1 () Int mul_58)
(define-fun output0_stride2 () Int inp_2_size3)
(define-fun output0_stride3 () Int 1)
(define-fun output0_storage_offset () Int 0)
(check-sat)
(get-value (inp_1_size0 inp_1_size1 inp_1_size2 inp_1_size3 inp_1_stride0 inp_1_stride1 inp_1_stride2 inp_1_stride3 inp_1_storage_offset inp_2__base_size0 inp_2__base_size1 inp_2__base_stride0 inp_2__base_stride1 inp_2__base_storage_offset inp_2_size0 inp_2_size1 inp_2_size2 inp_2_size3 inp_2_stride0 inp_2_stride1 inp_2_stride2 inp_2_stride3 inp_2_storage_offset output0_size0 output0_size1 output0_size2 output0_size3 output0_stride0 output0_stride1 output0_stride2 output0_stride3 output0_storage_offset))
